n_res = 4;
rc = [ 17, 15, 16, 16 ];
n_tasks = 30;
d = [ 4, 10, 1, 10, 8, 2, 2, 3, 4, 4, 1, 3, 10, 7, 9, 6, 8, 6, 8, 2, 7, 5, 3, 7, 9, 7, 4, 8, 1, 10 ];
rr = [| 5, 8, 0, 9, 6, 8, 3, 0, 5, 0, 10, 3, 0, 0, 1, 0, 0, 10, 0, 8, 0, 9, 0, 3, 0, 0, 0, 5, 8, 8
      | 10, 0, 9, 0, 0, 0, 10, 0, 0, 7, 0, 6, 0, 0, 0, 9, 0, 0, 4, 2, 0, 1, 1, 1, 0, 4, 6, 0, 0, 0
      | 0, 0, 3, 5, 4, 0, 0, 0, 6, 0, 1, 0, 4, 0, 9, 5, 5, 0, 0, 0, 0, 0, 2, 0, 10, 6, 1, 0, 0, 8
      | 0, 0, 6, 0, 7, 10, 5, 8, 0, 0, 0, 0, 2, 4, 0, 0, 0, 0, 5, 3, 7, 5, 0, 7, 10, 8, 0, 6, 10, 4 |];
suc = [ { 2 }, 
        { 1 }, 
        { 4 }, 
        { 3 }, 
        { 6 }, 
        { 5 }, 
        { 8 }, 
        { 7 }, 
        { 10 }, 
        { 9 }, 
        { 12 }, 
        { 11 }, 
        { 14 }, 
        { 13 }, 
        { 16 }, 
        { 15 }, 
        { 18 }, 
        { 17 }, 
        { 20 }, 
        { 19 }, 
        { 22 }, 
        { 21 }, 
        { 24 }, 
        { 23 }, 
        { 26 }, 
        { 25 }, 
        { 28 }, 
        { 27 }, 
        { 30 }, 
        { 29 }]; 
